c defined variables: 4 9 13 18 22 27 31 35 36 37 38 42 46 51 55 59 64 68 72 73 74 78 82 86 87 88 89 93 97 101 105 109 113 114 118 119 120 124 128 132 133 134 138 142 146 147 148 149 153 157 161 162 163 164 168 172 173 174 178 182 186 187 188 192 196 197 198 202 206 207 208 212 216 220 224 228 232 236 240 241 242 243 247 251 255 259 266 270 274 278 279 280 284 291 292 293 294 303 307 311 315 319 320 324 325 326 330 334 338 339 340 344 348 352 353 354 355 359 363 367 368 369 370 374 378 379 380 384 388 392 393 394 398 402 403 404 408 412 413 414 417 418 420 421 422 423 426 427 428 429 432 433 434 435 438 439 442 443 446 447 450 451 452 453 454 455 458 
p cnf 1518 1721
a 373 383 366 362 391 377 397 407 411 401 58 62 77 67 81 54 49 92 34 96 343 306 265 273 283 287 347 290 277 269 21 25 45 16 41 30 12 1 6 387 358 333 310 329 318 314 323 337 351 223 250 219 205 215 211 201 185 195 191 50 7 26 2 3 17 63 8 227 231 246 235 254 297 239 302 262 258 123 104 127 137 100 141 85 71 108 112 152 177 167 156 117 131 145 181 160 171 0
e 5 10 11 14 15 19 20 23 24 28 29 32 33 39 40 43 44 47 48 52 53 56 57 60 61 65 66 69 70 75 76 79 80 83 84 90 91 94 95 98 99 102 103 106 107 110 111 115 116 121 122 125 126 129 130 135 136 139 140 143 144 150 151 154 155 158 159 165 166 169 170 175 176 179 180 183 184 189 190 193 194 199 200 203 204 209 210 213 214 217 218 221 222 225 226 229 230 233 234 237 238 244 245 248 249 252 253 256 257 260 261 263 264 267 268 271 272 275 276 281 282 285 286 288 289 295 296 299 300 301 304 305 308 309 312 313 316 317 321 322 327 328 331 332 335 336 341 342 345 346 349 350 356 357 360 361 364 365 371 372 375 376 381 382 385 386 389 390 395 396 399 400 405 406 409 410 415 416 419 424 425 430 431 436 437 440 441 444 445 448 449 456 457 4 9 13 18 22 27 31 35 36 37 38 42 46 51 55 59 64 68 72 73 74 78 82 86 87 88 89 93 97 101 105 109 113 114 118 119 120 124 128 132 133 134 138 142 146 147 148 149 153 157 161 162 163 164 168 172 173 174 178 182 186 187 188 192 196 197 198 202 206 207 208 212 216 220 224 228 232 236 240 241 242 243 247 251 255 259 266 270 274 278 279 280 284 291 292 293 294 303 307 311 315 319 320 324 325 326 330 334 338 339 340 344 348 352 353 354 355 359 363 367 368 369 370 374 378 379 380 384 388 392 393 394 398 402 403 404 408 412 413 414 417 418 420 421 422 423 426 427 428 429 432 433 434 435 438 439 442 443 446 447 450 451 452 453 454 455 458 1354 1355 1356 1357 1358 1359 1360 1361 1362 1363 1364 1365 1366 1367 1368 1369 1370 1371 1372 1373 1374 1375 1376 1377 1378 1379 1380 1381 1382 1383 1384 1385 1386 1387 1388 1389 1390 1391 1392 1393 1394 1395 1396 1397 1398 1399 1400 1401 1402 1403 1404 1405 1406 1407 1408 1409 1410 1411 1412 1413 1414 1415 1416 1417 1418 1419 1420 1421 1422 1423 1424 1425 1426 1427 1428 1429 1430 1431 1432 1433 1434 1435 1436 1437 1438 1439 1440 1441 1442 1443 1444 1445 1446 1447 1448 1449 1450 1451 1452 1453 1454 1455 1456 1457 1458 1459 1460 1461 1462 1463 1464 1465 1466 1467 1468 1469 1470 1471 1472 1473 1474 1475 1476 1477 1478 1479 1480 1481 1482 1483 1484 1485 1486 1487 1488 1489 1490 1491 1492 1493 1494 1495 1496 1497 1498 1499 1500 1501 1502 1503 1504 1505 1506 1507 1508 1509 1510 1511 1512 1513 1514 1515 1516 1517 1518 0
d 298 262 287 0
1355 -4 0
-1355 4 0
1356 -9 0
-1356 9 0
-1359 -13 0
1359 13 0
1360 -18 0
-1360 18 0
1361 -22 0
-1361 22 0
1362 -27 0
-1362 27 0
-1365 -31 0
1365 31 0
-1354 -35 0
1354 35 0
-1354 -36 0
1354 36 0
1357 -37 0
-1357 37 0
-1366 -38 0
1366 38 0
-1369 -42 0
1369 42 0
-1372 -46 0
1372 46 0
1373 -51 0
-1373 51 0
1374 -55 0
-1374 55 0
1375 -59 0
-1375 59 0
1376 -64 0
-1376 64 0
-1379 -68 0
1379 68 0
1367 -72 0
-1367 72 0
1363 -73 0
-1363 73 0
-1380 -74 0
1380 74 0
-1383 -78 0
1383 78 0
-1386 -82 0
1386 82 0
-1354 -86 0
1354 86 0
-1354 -87 0
1354 87 0
1370 -88 0
-1370 88 0
1387 -89 0
-1387 89 0
-1390 -93 0
1390 93 0
-1393 -97 0
1393 97 0
1394 -101 0
-1394 101 0
1395 -105 0
-1395 105 0
1396 -109 0
-1396 109 0
-1354 -113 0
1354 113 0
1397 -114 0
-1397 114 0
1381 -118 0
-1381 118 0
1377 -119 0
-1377 119 0
-1398 -120 0
1398 120 0
-1401 -124 0
1401 124 0
-1404 -128 0
1404 128 0
1388 -132 0
-1388 132 0
1384 -133 0
-1384 133 0
-1405 -134 0
1405 134 0
-1408 -138 0
1408 138 0
-1411 -142 0
1411 142 0
-1354 -146 0
1354 146 0
-1354 -147 0
1354 147 0
1391 -148 0
-1391 148 0
1412 -149 0
-1412 149 0
1413 -153 0
-1413 153 0
1414 -157 0
-1414 157 0
1399 -161 0
-1399 161 0
-1354 -162 0
1354 162 0
-1354 -163 0
1354 163 0
1415 -164 0
-1415 164 0
-1418 -168 0
1418 168 0
1406 -172 0
-1406 172 0
1402 -173 0
-1402 173 0
-1419 -174 0
1419 174 0
-1422 -178 0
1422 178 0
-1425 -182 0
1425 182 0
1426 -186 0
-1426 186 0
1409 -187 0
-1409 187 0
-1427 -188 0
1427 188 0
1428 -192 0
-1428 192 0
1420 -196 0
-1420 196 0
1416 -197 0
-1416 197 0
-1429 -198 0
1429 198 0
-1432 -202 0
1432 202 0
1433 -206 0
-1433 206 0
1423 -207 0
-1423 207 0
-1434 -208 0
1434 208 0
1355 -212 0
-1355 212 0
1356 -216 0
-1356 216 0
-1437 -220 0
1437 220 0
1360 -224 0
-1360 224 0
1361 -228 0
-1361 228 0
1362 -232 0
-1362 232 0
-1440 -236 0
1440 236 0
-1354 -240 0
1354 240 0
-1354 -241 0
1354 241 0
1435 -242 0
-1435 242 0
1441 -243 0
-1441 243 0
-1444 -247 0
1444 247 0
-1447 -251 0
1447 251 0
1373 -255 0
-1373 255 0
1374 -259 0
-1374 259 0
1375 -266 0
-1375 266 0
1376 -270 0
-1376 270 0
-1450 -274 0
1450 274 0
1442 -278 0
-1442 278 0
1438 -279 0
-1438 279 0
-1451 -280 0
1451 280 0
-1454 -284 0
1454 284 0
-1354 -291 0
1354 291 0
-1354 -292 0
1354 292 0
1445 -293 0
-1445 293 0
1455 -294 0
-1455 294 0
-1458 -303 0
1458 303 0
1394 -307 0
-1394 307 0
1395 -311 0
-1395 311 0
1396 -315 0
-1396 315 0
-1354 -319 0
1354 319 0
1459 -320 0
-1459 320 0
1452 -324 0
-1452 324 0
1448 -325 0
-1448 325 0
-1460 -326 0
1460 326 0
-1463 -330 0
1463 330 0
-1466 -334 0
1466 334 0
1467 -338 0
-1467 338 0
1468 -339 0
-1468 339 0
-1469 -340 0
1469 340 0
-1472 -344 0
1472 344 0
-1475 -348 0
1475 348 0
-1354 -352 0
1354 352 0
-1354 -353 0
1354 353 0
1456 -354 0
-1456 354 0
1476 -355 0
-1476 355 0
1413 -359 0
-1413 359 0
1414 -363 0
-1414 363 0
1461 -367 0
-1461 367 0
-1354 -368 0
1354 368 0
-1354 -369 0
1354 369 0
1477 -370 0
-1477 370 0
-1480 -374 0
1480 374 0
1470 -378 0
-1470 378 0
1464 -379 0
-1464 379 0
-1481 -380 0
1481 380 0
-1484 -384 0
1484 384 0
-1487 -388 0
1487 388 0
1488 -392 0
-1488 392 0
1473 -393 0
-1473 393 0
-1489 -394 0
1489 394 0
1428 -398 0
-1428 398 0
1482 -402 0
-1482 402 0
1478 -403 0
-1478 403 0
-1490 -404 0
1490 404 0
-1493 -408 0
1493 408 0
1494 -412 0
-1494 412 0
1485 -413 0
-1485 413 0
-1495 -414 0
1495 414 0
1496 -417 0
-1496 417 0
1496 -418 0
-1496 418 0
-1354 -420 0
1354 420 0
1497 -421 0
-1497 421 0
-1354 -422 0
1354 422 0
1498 -423 0
-1498 423 0
-1354 -426 0
1354 426 0
1499 -427 0
-1499 427 0
-1354 -428 0
1354 428 0
1500 -429 0
-1500 429 0
-1354 -432 0
1354 432 0
1501 -433 0
-1501 433 0
-1354 -434 0
1354 434 0
1502 -435 0
-1502 435 0
-1504 -438 0
1504 438 0
-1506 -439 0
1506 439 0
-1508 -442 0
1508 442 0
-1510 -443 0
1510 443 0
-1513 -446 0
1513 446 0
-1516 -447 0
1516 447 0
1511 -450 0
-1511 450 0
1491 -451 0
-1491 451 0
-1517 -452 0
1517 452 0
1514 -453 0
-1514 453 0
1430 -454 0
-1430 454 0
-1518 -455 0
1518 455 0
1354 -458 0
-1354 458 0
458 0
-458 416 457 0
-416 410 -415 0
-410 406 -409 0
-406 400 -405 0
-400 396 -399 0
-396 390 -395 0
-390 386 -389 0
-386 382 -385 0
-382 376 -381 0
-376 372 -375 0
-372 365 -371 0
-365 361 -364 0
-361 357 -360 0
-357 350 -356 0
-350 346 -349 0
-346 342 -345 0
-342 336 -341 0
-336 332 -335 0
-332 328 -331 0
-328 322 -327 0
-322 317 -321 0
-317 313 -316 0
-313 309 -312 0
-309 305 -308 0
-305 301 -304 0
-301 296 -300 0
-296 289 -295 0
-289 286 -288 0
-286 282 -285 0
-282 276 -281 0
-276 272 -275 0
-272 268 -271 0
-268 264 -267 0
-264 261 -263 0
-261 257 -260 0
-257 253 -256 0
-253 249 -252 0
-249 245 -248 0
-245 238 -244 0
-238 234 -237 0
-234 230 -233 0
-230 226 -229 0
-226 222 -225 0
-222 218 -221 0
-218 214 -217 0
-214 210 -213 0
-210 204 -209 0
-204 200 -203 0
-200 194 -199 0
-194 190 -193 0
-190 184 -189 0
-184 180 -183 0
-180 176 -179 0
-176 170 -175 0
-170 166 -169 0
-166 159 -165 0
-159 155 -158 0
-155 151 -154 0
-151 144 -150 0
-144 140 -143 0
-140 136 -139 0
-136 130 -135 0
-130 126 -129 0
-126 122 -125 0
-122 116 -121 0
-116 111 -115 0
-111 107 -110 0
-107 103 -106 0
-103 99 -102 0
-99 95 -98 0
-95 91 -94 0
-91 84 -90 0
-84 80 -83 0
-80 76 -79 0
-76 70 -75 0
-70 66 -69 0
-66 61 -65 0
-61 57 -60 0
-57 53 -56 0
-53 48 -52 0
-48 44 -47 0
-44 40 -43 0
-40 33 -39 0
-33 29 -32 0
-29 24 -28 0
-24 20 -23 0
-20 15 -19 0
-15 11 -14 0
-11 -5 -10 0
1 4 5 0
-1 -4 5 0
-2 -3 4 0
-4 2 0
-4 3 0
6 9 10 0
-6 -9 10 0
-7 -8 9 0
-9 7 0
-9 8 0
12 -13 14 0
-12 13 14 0
-13 -1 6 0
-13 1 -6 0
1 6 13 0
-1 -6 13 0
16 18 19 0
-16 -18 19 0
-2 -17 18 0
-18 2 0
-18 17 0
21 22 23 0
-21 -22 23 0
-7 -3 22 0
-22 7 0
-22 3 0
25 27 28 0
-25 -27 28 0
-26 -8 27 0
-27 26 0
-27 8 0
30 -31 32 0
-30 31 32 0
-31 -21 25 0
-31 21 -25 0
21 25 31 0
-21 -25 31 0
34 38 39 0
-34 -38 39 0
-36 37 38 0
36 -37 38 0
-36 -37 38 0
-12 -35 36 0
-2 2 35 0
-1 -6 37 0
-38 36 37 0
-36 12 0
-36 35 0
-35 2 0
-35 -2 0
-37 1 0
-37 6 0
41 -42 43 0
-41 42 43 0
-42 -30 34 0
-42 30 -34 0
30 34 42 0
-30 -34 42 0
45 -46 47 0
-45 46 47 0
-46 -16 41 0
-46 16 -41 0
16 41 46 0
-16 -41 46 0
49 51 52 0
-49 -51 52 0
-2 -50 51 0
-51 2 0
-51 50 0
54 55 56 0
-54 -55 56 0
-7 -17 55 0
-55 7 0
-55 17 0
58 59 60 0
-58 -59 60 0
-26 -3 59 0
-59 26 0
-59 3 0
62 64 65 0
-62 -64 65 0
-63 -8 64 0
-64 63 0
-64 8 0
67 -68 69 0
-67 68 69 0
-68 -58 62 0
-68 58 -62 0
58 62 68 0
-58 -62 68 0
71 74 75 0
-71 -74 75 0
-72 73 74 0
72 -73 74 0
-72 -73 74 0
-30 -34 72 0
-21 -25 73 0
-74 72 73 0
-72 30 0
-72 34 0
-73 21 0
-73 25 0
77 -78 79 0
-77 78 79 0
-78 -67 71 0
-78 67 -71 0
67 71 78 0
-67 -71 78 0
81 -82 83 0
-81 82 83 0
-82 -54 77 0
-82 54 -77 0
54 77 82 0
-54 -77 82 0
85 89 90 0
-85 -89 90 0
-87 88 89 0
87 -88 89 0
-87 -88 89 0
-45 -86 87 0
-2 2 86 0
-16 -41 88 0
-89 87 88 0
-87 45 0
-87 86 0
-86 2 0
-86 -2 0
-88 16 0
-88 41 0
92 -93 94 0
-92 93 94 0
-93 -81 85 0
-93 81 -85 0
81 85 93 0
-81 -85 93 0
96 -97 98 0
-96 97 98 0
-97 -49 92 0
-97 49 -92 0
49 92 97 0
-49 -92 97 0
100 101 102 0
-100 -101 102 0
-7 -50 101 0
-101 7 0
-101 50 0
104 105 106 0
-104 -105 106 0
-26 -17 105 0
-105 26 0
-105 17 0
108 109 110 0
-108 -109 110 0
-63 -3 109 0
-109 63 0
-109 3 0
112 -114 115 0
-112 114 115 0
-114 -108 113 0
-114 108 -113 0
-113 2 0
-113 -2 0
-2 2 113 0
108 113 114 0
-108 -113 114 0
-2 2 113 0
-113 2 0
-113 -2 0
117 120 121 0
-117 -120 121 0
-118 119 120 0
118 -119 120 0
-118 -119 120 0
-67 -71 118 0
-58 -62 119 0
-120 118 119 0
-118 67 0
-118 71 0
-119 58 0
-119 62 0
123 -124 125 0
-123 124 125 0
-124 -112 117 0
-124 112 -117 0
112 117 124 0
-112 -117 124 0
127 -128 129 0
-127 128 129 0
-128 -104 123 0
-128 104 -123 0
104 123 128 0
-104 -123 128 0
131 134 135 0
-131 -134 135 0
-132 133 134 0
132 -133 134 0
-132 -133 134 0
-81 -85 132 0
-54 -77 133 0
-134 132 133 0
-132 81 0
-132 85 0
-133 54 0
-133 77 0
137 -138 139 0
-137 138 139 0
-138 -127 131 0
-138 127 -131 0
127 131 138 0
-127 -131 138 0
141 -142 143 0
-141 142 143 0
-142 -100 137 0
-142 100 -137 0
100 137 142 0
-100 -137 142 0
145 149 150 0
-145 -149 150 0
-147 148 149 0
147 -148 149 0
-147 -148 149 0
-96 -146 147 0
-2 2 146 0
-49 -92 148 0
-149 147 148 0
-147 96 0
-147 146 0
-146 2 0
-146 -2 0
-148 49 0
-148 92 0
152 153 154 0
-152 -153 154 0
-26 -50 153 0
-153 26 0
-153 50 0
156 157 158 0
-156 -157 158 0
-63 -17 157 0
-157 63 0
-157 17 0
160 164 165 0
-160 -164 165 0
-161 163 164 0
161 -163 164 0
-161 -163 164 0
-112 -117 161 0
-108 -162 163 0
-2 2 162 0
-164 161 163 0
-161 112 0
-161 117 0
-163 108 0
-163 162 0
-162 2 0
-162 -2 0
167 -168 169 0
-167 168 169 0
-168 -156 160 0
-168 156 -160 0
156 160 168 0
-156 -160 168 0
171 174 175 0
-171 -174 175 0
-172 173 174 0
172 -173 174 0
-172 -173 174 0
-127 -131 172 0
-104 -123 173 0
-174 172 173 0
-172 127 0
-172 131 0
-173 104 0
-173 123 0
177 -178 179 0
-177 178 179 0
-178 -167 171 0
-178 167 -171 0
167 171 178 0
-167 -171 178 0
181 -182 183 0
-181 182 183 0
-182 -152 177 0
-182 152 -177 0
152 177 182 0
-152 -177 182 0
185 188 189 0
-185 -188 189 0
-186 187 188 0
186 -187 188 0
-186 -187 188 0
-141 -145 186 0
-100 -137 187 0
-188 186 187 0
-186 141 0
-186 145 0
-187 100 0
-187 137 0
191 192 193 0
-191 -192 193 0
-63 -50 192 0
-192 63 0
-192 50 0
195 198 199 0
-195 -198 199 0
-196 197 198 0
196 -197 198 0
-196 -197 198 0
-167 -171 196 0
-156 -160 197 0
-198 196 197 0
-196 167 0
-196 171 0
-197 156 0
-197 160 0
201 -202 203 0
-201 202 203 0
-202 -191 195 0
-202 191 -195 0
191 195 202 0
-191 -195 202 0
205 208 209 0
-205 -208 209 0
-206 207 208 0
206 -207 208 0
-206 -207 208 0
-181 -185 206 0
-152 -177 207 0
-208 206 207 0
-206 181 0
-206 185 0
-207 152 0
-207 177 0
211 212 213 0
-211 -212 213 0
-2 -3 212 0
-212 2 0
-212 3 0
215 216 217 0
-215 -216 217 0
-7 -8 216 0
-216 7 0
-216 8 0
219 -220 221 0
-219 220 221 0
-220 -211 215 0
-220 211 -215 0
211 215 220 0
-211 -215 220 0
223 224 225 0
-223 -224 225 0
-2 -17 224 0
-224 2 0
-224 17 0
227 228 229 0
-227 -228 229 0
-7 -3 228 0
-228 7 0
-228 3 0
231 232 233 0
-231 -232 233 0
-26 -8 232 0
-232 26 0
-232 8 0
235 -236 237 0
-235 236 237 0
-236 -227 231 0
-236 227 -231 0
227 231 236 0
-227 -231 236 0
239 243 244 0
-239 -243 244 0
-241 242 243 0
241 -242 243 0
-241 -242 243 0
-219 -240 241 0
-2 2 240 0
-211 -215 242 0
-243 241 242 0
-241 219 0
-241 240 0
-240 2 0
-240 -2 0
-242 211 0
-242 215 0
246 -247 248 0
-246 247 248 0
-247 -235 239 0
-247 235 -239 0
235 239 247 0
-235 -239 247 0
250 -251 252 0
-250 251 252 0
-251 -223 246 0
-251 223 -246 0
223 246 251 0
-223 -246 251 0
254 255 256 0
-254 -255 256 0
-2 -50 255 0
-255 2 0
-255 50 0
258 259 260 0
-258 -259 260 0
-7 -17 259 0
-259 7 0
-259 17 0
262 258 263 0
-262 -258 263 0
265 266 267 0
-265 -266 267 0
-26 -3 266 0
-266 26 0
-266 3 0
269 270 271 0
-269 -270 271 0
-63 -8 270 0
-270 63 0
-270 8 0
273 -274 275 0
-273 274 275 0
-274 -265 269 0
-274 265 -269 0
265 269 274 0
-265 -269 274 0
277 280 281 0
-277 -280 281 0
-278 279 280 0
278 -279 280 0
-278 -279 280 0
-235 -239 278 0
-227 -231 279 0
-280 278 279 0
-278 235 0
-278 239 0
-279 227 0
-279 231 0
283 -284 285 0
-283 284 285 0
-284 -273 277 0
-284 273 -277 0
273 277 284 0
-273 -277 284 0
287 283 288 0
-287 -283 288 0
290 294 295 0
-290 -294 295 0
-292 293 294 0
292 -293 294 0
-292 -293 294 0
-250 -291 292 0
-2 2 291 0
-223 -246 293 0
-294 292 293 0
-292 250 0
-292 291 0
-291 2 0
-291 -2 0
-293 223 0
-293 246 0
297 -299 300 0
-297 299 300 0
-299 -298 290 0
-299 298 -290 0
298 290 299 0
-298 -290 299 0
302 -303 304 0
-302 303 304 0
-303 -254 297 0
-303 254 -297 0
254 297 303 0
-254 -297 303 0
306 307 308 0
-306 -307 308 0
-7 -50 307 0
-307 7 0
-307 50 0
310 311 312 0
-310 -311 312 0
-26 -17 311 0
-311 26 0
-311 17 0
314 315 316 0
-314 -315 316 0
-63 -3 315 0
-315 63 0
-315 3 0
318 -320 321 0
-318 320 321 0
-320 -314 319 0
-320 314 -319 0
-319 2 0
-319 -2 0
-2 2 319 0
314 319 320 0
-314 -319 320 0
-2 2 319 0
-319 2 0
-319 -2 0
323 326 327 0
-323 -326 327 0
-324 325 326 0
324 -325 326 0
-324 -325 326 0
-273 -277 324 0
-265 -269 325 0
-326 324 325 0
-324 273 0
-324 277 0
-325 265 0
-325 269 0
329 -330 331 0
-329 330 331 0
-330 -318 323 0
-330 318 -323 0
318 323 330 0
-318 -323 330 0
333 -334 335 0
-333 334 335 0
-334 -310 329 0
-334 310 -329 0
310 329 334 0
-310 -329 334 0
337 340 341 0
-337 -340 341 0
-338 339 340 0
338 -339 340 0
-338 -339 340 0
-298 -290 338 0
-258 -283 339 0
-340 338 339 0
-338 298 0
-338 290 0
-339 258 0
-339 283 0
343 -344 345 0
-343 344 345 0
-344 -333 337 0
-344 333 -337 0
333 337 344 0
-333 -337 344 0
347 -348 349 0
-347 348 349 0
-348 -306 343 0
-348 306 -343 0
306 343 348 0
-306 -343 348 0
351 355 356 0
-351 -355 356 0
-353 354 355 0
353 -354 355 0
-353 -354 355 0
-302 -352 353 0
-2 2 352 0
-254 -297 354 0
-355 353 354 0
-353 302 0
-353 352 0
-352 2 0
-352 -2 0
-354 254 0
-354 297 0
358 359 360 0
-358 -359 360 0
-26 -50 359 0
-359 26 0
-359 50 0
362 363 364 0
-362 -363 364 0
-63 -17 363 0
-363 63 0
-363 17 0
366 370 371 0
-366 -370 371 0
-367 369 370 0
367 -369 370 0
-367 -369 370 0
-318 -323 367 0
-314 -368 369 0
-2 2 368 0
-370 367 369 0
-367 318 0
-367 323 0
-369 314 0
-369 368 0
-368 2 0
-368 -2 0
373 -374 375 0
-373 374 375 0
-374 -362 366 0
-374 362 -366 0
362 366 374 0
-362 -366 374 0
377 380 381 0
-377 -380 381 0
-378 379 380 0
378 -379 380 0
-378 -379 380 0
-333 -337 378 0
-310 -329 379 0
-380 378 379 0
-378 333 0
-378 337 0
-379 310 0
-379 329 0
383 -384 385 0
-383 384 385 0
-384 -373 377 0
-384 373 -377 0
373 377 384 0
-373 -377 384 0
387 -388 389 0
-387 388 389 0
-388 -358 383 0
-388 358 -383 0
358 383 388 0
-358 -383 388 0
391 -394 395 0
-391 394 395 0
-394 392 393 0
-392 347 0
-392 351 0
-393 306 0
-393 343 0
-392 393 394 0
392 -393 394 0
-392 -393 394 0
-347 -351 392 0
-306 -343 393 0
397 398 399 0
-397 -398 399 0
-63 -50 398 0
-398 63 0
-398 50 0
401 404 405 0
-401 -404 405 0
-402 403 404 0
402 -403 404 0
-402 -403 404 0
-373 -377 402 0
-362 -366 403 0
-404 402 403 0
-402 373 0
-402 377 0
-403 362 0
-403 366 0
407 -408 409 0
-407 408 409 0
-408 -397 401 0
-408 397 -401 0
397 401 408 0
-397 -401 408 0
411 414 415 0
-411 -414 415 0
-412 413 414 0
412 -413 414 0
-412 -413 414 0
-387 -391 412 0
-358 -383 413 0
-414 412 413 0
-412 387 0
-412 391 0
-413 358 0
-413 383 0
-457 449 0
-457 456 0
-449 445 0
-449 448 0
-445 441 0
-445 444 0
-441 437 0
-441 440 0
-437 431 0
-437 436 0
-431 425 0
-431 430 0
-425 419 0
-425 424 0
-419 -417 418 0
-419 417 -418 0
-417 2 0
-417 8 0
-418 2 0
-418 8 0
-2 -8 417 0
-2 -8 418 0
-424 421 -423 0
-424 -421 423 0
219 420 421 0
-219 -420 421 0
-2 2 420 0
-420 2 0
-420 -2 0
12 422 423 0
-12 -422 423 0
-2 2 422 0
-422 2 0
-422 -2 0
-421 -219 420 0
-421 219 -420 0
-420 2 0
-420 -2 0
-2 2 420 0
-423 -12 422 0
-423 12 -422 0
-422 2 0
-422 -2 0
-2 2 422 0
-430 427 -429 0
-430 -427 429 0
250 426 427 0
-250 -426 427 0
-2 2 426 0
-426 2 0
-426 -2 0
45 428 429 0
-45 -428 429 0
-2 2 428 0
-428 2 0
-428 -2 0
-427 -250 426 0
-427 250 -426 0
-426 2 0
-426 -2 0
-2 2 426 0
-429 -45 428 0
-429 45 -428 0
-428 2 0
-428 -2 0
-2 2 428 0
-436 433 -435 0
-436 -433 435 0
302 432 433 0
-302 -432 433 0
-2 2 432 0
-432 2 0
-432 -2 0
96 434 435 0
-96 -434 435 0
-2 2 434 0
-434 2 0
-434 -2 0
-433 -302 432 0
-433 302 -432 0
-432 2 0
-432 -2 0
-2 2 432 0
-435 -96 434 0
-435 96 -434 0
-434 2 0
-434 -2 0
-2 2 434 0
-440 438 -439 0
-440 -438 439 0
347 351 438 0
-347 -351 438 0
141 145 439 0
-141 -145 439 0
-438 -347 351 0
-438 347 -351 0
-439 -141 145 0
-439 141 -145 0
-444 442 -443 0
-444 -442 443 0
387 391 442 0
-387 -391 442 0
181 185 443 0
-181 -185 443 0
-442 -387 391 0
-442 387 -391 0
-443 -181 185 0
-443 181 -185 0
-448 446 -447 0
-448 -446 447 0
407 411 446 0
-407 -411 446 0
201 205 447 0
-201 -205 447 0
-446 -407 411 0
-446 407 -411 0
-447 -201 205 0
-447 201 -205 0
-456 -452 455 0
-456 452 -455 0
-452 450 451 0
-450 407 0
-450 411 0
-451 397 0
-451 401 0
-455 453 454 0
-453 201 0
-453 205 0
-454 191 0
-454 195 0
-450 451 452 0
450 -451 452 0
-450 -451 452 0
-407 -411 450 0
-397 -401 451 0
-453 454 455 0
453 -454 455 0
-453 -454 455 0
-201 -205 453 0
-191 -195 454 0
1354 0
2 -1355 0
3 -1355 0
-2 -3 1355 0
7 -1356 0
8 -1356 0
-7 -8 1356 0
1 -1357 0
6 -1357 0
-1 -6 1357 0
-1 -1358 0
-6 -1358 0
1 6 1358 0
-1357 -1359 0
-1358 -1359 0
1357 1358 1359 0
2 -1360 0
17 -1360 0
-2 -17 1360 0
7 -1361 0
3 -1361 0
-7 -3 1361 0
26 -1362 0
8 -1362 0
-26 -8 1362 0
21 -1363 0
25 -1363 0
-21 -25 1363 0
-21 -1364 0
-25 -1364 0
21 25 1364 0
-1363 -1365 0
-1364 -1365 0
1363 1364 1365 0
-36 -1366 0
-37 -1366 0
36 37 1366 0
34 -1367 0
30 -1367 0
-34 -30 1367 0
-34 -1368 0
-30 -1368 0
34 30 1368 0
-1367 -1369 0
-1368 -1369 0
1367 1368 1369 0
16 -1370 0
41 -1370 0
-16 -41 1370 0
-16 -1371 0
-41 -1371 0
16 41 1371 0
-1370 -1372 0
-1371 -1372 0
1370 1371 1372 0
50 -1373 0
2 -1373 0
-50 -2 1373 0
7 -1374 0
17 -1374 0
-7 -17 1374 0
26 -1375 0
3 -1375 0
-26 -3 1375 0
63 -1376 0
8 -1376 0
-63 -8 1376 0
58 -1377 0
62 -1377 0
-58 -62 1377 0
-58 -1378 0
-62 -1378 0
58 62 1378 0
-1377 -1379 0
-1378 -1379 0
1377 1378 1379 0
-72 -1380 0
-73 -1380 0
72 73 1380 0
67 -1381 0
71 -1381 0
-67 -71 1381 0
-67 -1382 0
-71 -1382 0
67 71 1382 0
-1381 -1383 0
-1382 -1383 0
1381 1382 1383 0
77 -1384 0
54 -1384 0
-77 -54 1384 0
-77 -1385 0
-54 -1385 0
77 54 1385 0
-1384 -1386 0
-1385 -1386 0
1384 1385 1386 0
-87 -1387 0
88 -1387 0
87 -88 1387 0
81 -1388 0
85 -1388 0
-81 -85 1388 0
-81 -1389 0
-85 -1389 0
81 85 1389 0
-1388 -1390 0
-1389 -1390 0
1388 1389 1390 0
49 -1391 0
92 -1391 0
-49 -92 1391 0
-49 -1392 0
-92 -1392 0
49 92 1392 0
-1391 -1393 0
-1392 -1393 0
1391 1392 1393 0
50 -1394 0
7 -1394 0
-50 -7 1394 0
26 -1395 0
17 -1395 0
-26 -17 1395 0
3 -1396 0
63 -1396 0
-3 -63 1396 0
-108 -1397 0
-113 -1397 0
108 113 1397 0
-118 -1398 0
-119 -1398 0
118 119 1398 0
112 -1399 0
117 -1399 0
-112 -117 1399 0
-112 -1400 0
-117 -1400 0
112 117 1400 0
-1399 -1401 0
-1400 -1401 0
1399 1400 1401 0
123 -1402 0
104 -1402 0
-123 -104 1402 0
-123 -1403 0
-104 -1403 0
123 104 1403 0
-1402 -1404 0
-1403 -1404 0
1402 1403 1404 0
-132 -1405 0
-133 -1405 0
132 133 1405 0
127 -1406 0
131 -1406 0
-127 -131 1406 0
-127 -1407 0
-131 -1407 0
127 131 1407 0
-1406 -1408 0
-1407 -1408 0
1406 1407 1408 0
137 -1409 0
100 -1409 0
-137 -100 1409 0
-137 -1410 0
-100 -1410 0
137 100 1410 0
-1409 -1411 0
-1410 -1411 0
1409 1410 1411 0
-147 -1412 0
148 -1412 0
147 -148 1412 0
50 -1413 0
26 -1413 0
-50 -26 1413 0
17 -1414 0
63 -1414 0
-17 -63 1414 0
161 -1415 0
-163 -1415 0
-161 163 1415 0
156 -1416 0
160 -1416 0
-156 -160 1416 0
-156 -1417 0
-160 -1417 0
156 160 1417 0
-1416 -1418 0
-1417 -1418 0
1416 1417 1418 0
-172 -1419 0
-173 -1419 0
172 173 1419 0
167 -1420 0
171 -1420 0
-167 -171 1420 0
-167 -1421 0
-171 -1421 0
167 171 1421 0
-1420 -1422 0
-1421 -1422 0
1420 1421 1422 0
152 -1423 0
177 -1423 0
-152 -177 1423 0
-152 -1424 0
-177 -1424 0
152 177 1424 0
-1423 -1425 0
-1424 -1425 0
1423 1424 1425 0
141 -1426 0
145 -1426 0
-141 -145 1426 0
-186 -1427 0
-187 -1427 0
186 187 1427 0
50 -1428 0
63 -1428 0
-50 -63 1428 0
-196 -1429 0
-197 -1429 0
196 197 1429 0
195 -1430 0
191 -1430 0
-195 -191 1430 0
-195 -1431 0
-191 -1431 0
195 191 1431 0
-1430 -1432 0
-1431 -1432 0
1430 1431 1432 0
185 -1433 0
181 -1433 0
-185 -181 1433 0
-206 -1434 0
-207 -1434 0
206 207 1434 0
215 -1435 0
211 -1435 0
-215 -211 1435 0
-215 -1436 0
-211 -1436 0
215 211 1436 0
-1435 -1437 0
-1436 -1437 0
1435 1436 1437 0
227 -1438 0
231 -1438 0
-227 -231 1438 0
-227 -1439 0
-231 -1439 0
227 231 1439 0
-1438 -1440 0
-1439 -1440 0
1438 1439 1440 0
-241 -1441 0
242 -1441 0
241 -242 1441 0
235 -1442 0
239 -1442 0
-235 -239 1442 0
-235 -1443 0
-239 -1443 0
235 239 1443 0
-1442 -1444 0
-1443 -1444 0
1442 1443 1444 0
223 -1445 0
246 -1445 0
-223 -246 1445 0
-223 -1446 0
-246 -1446 0
223 246 1446 0
-1445 -1447 0
-1446 -1447 0
1445 1446 1447 0
265 -1448 0
269 -1448 0
-265 -269 1448 0
-265 -1449 0
-269 -1449 0
265 269 1449 0
-1448 -1450 0
-1449 -1450 0
1448 1449 1450 0
-278 -1451 0
-279 -1451 0
278 279 1451 0
273 -1452 0
277 -1452 0
-273 -277 1452 0
-273 -1453 0
-277 -1453 0
273 277 1453 0
-1452 -1454 0
-1453 -1454 0
1452 1453 1454 0
-292 -1455 0
293 -1455 0
292 -293 1455 0
254 -1456 0
297 -1456 0
-254 -297 1456 0
-254 -1457 0
-297 -1457 0
254 297 1457 0
-1456 -1458 0
-1457 -1458 0
1456 1457 1458 0
-314 -1459 0
-319 -1459 0
314 319 1459 0
-324 -1460 0
-325 -1460 0
324 325 1460 0
318 -1461 0
323 -1461 0
-318 -323 1461 0
-318 -1462 0
-323 -1462 0
318 323 1462 0
-1461 -1463 0
-1462 -1463 0
1461 1462 1463 0
310 -1464 0
329 -1464 0
-310 -329 1464 0
-310 -1465 0
-329 -1465 0
310 329 1465 0
-1464 -1466 0
-1465 -1466 0
1464 1465 1466 0
290 -1467 0
299 -1467 0
-290 -299 1467 0
283 -1468 0
258 -1468 0
-283 -258 1468 0
-338 -1469 0
-339 -1469 0
338 339 1469 0
333 -1470 0
337 -1470 0
-333 -337 1470 0
-333 -1471 0
-337 -1471 0
333 337 1471 0
-1470 -1472 0
-1471 -1472 0
1470 1471 1472 0
343 -1473 0
306 -1473 0
-343 -306 1473 0
-343 -1474 0
-306 -1474 0
343 306 1474 0
-1473 -1475 0
-1474 -1475 0
1473 1474 1475 0
-353 -1476 0
354 -1476 0
353 -354 1476 0
367 -1477 0
-369 -1477 0
-367 369 1477 0
366 -1478 0
362 -1478 0
-366 -362 1478 0
-366 -1479 0
-362 -1479 0
366 362 1479 0
-1478 -1480 0
-1479 -1480 0
1478 1479 1480 0
-378 -1481 0
-379 -1481 0
378 379 1481 0
373 -1482 0
377 -1482 0
-373 -377 1482 0
-373 -1483 0
-377 -1483 0
373 377 1483 0
-1482 -1484 0
-1483 -1484 0
1482 1483 1484 0
383 -1485 0
358 -1485 0
-383 -358 1485 0
-383 -1486 0
-358 -1486 0
383 358 1486 0
-1485 -1487 0
-1486 -1487 0
1485 1486 1487 0
347 -1488 0
351 -1488 0
-347 -351 1488 0
-392 -1489 0
-393 -1489 0
392 393 1489 0
-402 -1490 0
-403 -1490 0
402 403 1490 0
397 -1491 0
401 -1491 0
-397 -401 1491 0
-397 -1492 0
-401 -1492 0
397 401 1492 0
-1491 -1493 0
-1492 -1493 0
1491 1492 1493 0
391 -1494 0
387 -1494 0
-391 -387 1494 0
-412 -1495 0
-413 -1495 0
412 413 1495 0
2 -1496 0
8 -1496 0
-2 -8 1496 0
-219 -1497 0
-420 -1497 0
219 420 1497 0
-12 -1498 0
-422 -1498 0
12 422 1498 0
-250 -1499 0
-426 -1499 0
250 426 1499 0
-45 -1500 0
-428 -1500 0
45 428 1500 0
-302 -1501 0
-432 -1501 0
302 432 1501 0
-96 -1502 0
-434 -1502 0
96 434 1502 0
-347 -1503 0
-351 -1503 0
347 351 1503 0
-1488 -1504 0
-1503 -1504 0
1488 1503 1504 0
-141 -1505 0
-145 -1505 0
141 145 1505 0
-1426 -1506 0
-1505 -1506 0
1426 1505 1506 0
-391 -1507 0
-387 -1507 0
391 387 1507 0
-1494 -1508 0
-1507 -1508 0
1494 1507 1508 0
-185 -1509 0
-181 -1509 0
185 181 1509 0
-1433 -1510 0
-1509 -1510 0
1433 1509 1510 0
407 -1511 0
411 -1511 0
-407 -411 1511 0
-407 -1512 0
-411 -1512 0
407 411 1512 0
-1511 -1513 0
-1512 -1513 0
1511 1512 1513 0
205 -1514 0
201 -1514 0
-205 -201 1514 0
-205 -1515 0
-201 -1515 0
205 201 1515 0
-1514 -1516 0
-1515 -1516 0
1514 1515 1516 0
-450 -1517 0
-451 -1517 0
450 451 1517 0
-453 -1518 0
-454 -1518 0
453 454 1518 0
